\ Model bat_deg
\ LP format - for model browsing. Use MPS format to capture full model detail.
Minimize
  0.3339248722817921 C240 + 0.3339248722817921 C241
   + 0.3339248722817921 C242 + 0.3339248722817921 C243
   + 0.3339248722817921 C244 + 0.3339248722817921 C245
   + 0.3339248722817921 C246 + 0.3339248722817921 C247
   + 0.3339248722817921 C248 + 0.3339248722817921 C249
   + 0.3339248722817921 C250 + 0.3339248722817921 C251
   + 0.3339248722817921 C252 + 0.3339248722817921 C253
   + 0.3339248722817921 C254 + 0.3339248722817921 C255
   + 0.3339248722817921 C256 + 0.3339248722817921 C257
   + 0.3339248722817921 C258 + 0.3339248722817921 C259
   + 0.3339248722817921 C260 + 0.3339248722817921 C261
   + 0.3339248722817921 C262 + 0.3339248722817921 C263
   + 0.3339248722817921 C264 + 0.3339248722817921 C265
   + 0.3339248722817921 C266 + 0.3339248722817921 C267
   + 0.3339248722817921 C268 + 0.3339248722817921 C269
   + 0.3339248722817921 C270 + 0.3339248722817921 C271
   + 0.3339248722817921 C272 + 0.3339248722817921 C273
   + 0.3339248722817921 C274 + 0.3339248722817921 C275
   + 0.3339248722817921 C276 + 0.3339248722817921 C277
   + 0.3339248722817921 C278 + 0.3339248722817921 C279
   + 0.3339248722817921 C280 + 0.3339248722817921 C281
   + 0.3339248722817921 C282 + 0.3339248722817921 C283
   + 0.3339248722817921 C284 + 0.3339248722817921 C285
   + 0.3339248722817921 C286 + 0.3339248722817921 C287
   + 0.3339248722817921 C288 + 0.3339248722817921 C289
   + 0.3339248722817921 C290 + 0.3339248722817921 C291
   + 0.3339248722817921 C292 + 0.3339248722817921 C293
   + 0.3339248722817921 C294 + 0.3339248722817921 C295
   + 0.3339248722817921 C296 + 0.3339248722817921 C297
   + 0.3339248722817921 C298 + 0.3339248722817921 C299
   + 0.3339248722817921 C300 + 0.3339248722817921 C301
   + 0.3339248722817921 C302 + 0.3339248722817921 C303
   + 0.3339248722817921 C304 + 0.3339248722817921 C305
   + 0.3339248722817921 C306 + 0.3339248722817921 C307
   + 0.3339248722817921 C308 + 0.3339248722817921 C309
   + 0.3339248722817921 C310 + 0.3339248722817921 C311
   + 0.3339248722817921 C312 + 0.3339248722817921 C313
   + 0.3339248722817921 C314 + 0.3339248722817921 C315
   + 0.3339248722817921 C316 + 0.3339248722817921 C317
   + 0.3339248722817921 C318 + 0.3339248722817921 C319
Subject To
 R0: C0 >= 0
 R1: C1 >= 0
 R2: C2 >= 0
 R3: C3 >= 0
 R4: C4 >= 0
 R5: C5 >= 0
 R6: C6 >= 0
 R7: C7 >= 0
 R8: C8 >= 0
 R9: C9 >= 0
 R10: C10 >= 0
 R11: C11 >= 0
 R12: C12 >= 0
 R13: C13 >= 0
 R14: C14 >= 0
 R15: C15 >= 0
 R16: C16 >= 0
 R17: C17 >= 0
 R18: C18 >= 0
 R19: C19 >= 0
 R20: C20 >= 0
 R21: C21 >= 0
 R22: C22 >= 0
 R23: C23 >= 0
 R24: C24 >= 0
 R25: C25 >= 0
 R26: C26 >= 0
 R27: C27 >= 0
 R28: C28 >= 0
 R29: C29 >= 0
 R30: C30 >= 0
 R31: C31 >= 0
 R32: C32 >= 0
 R33: C33 >= 0
 R34: C34 >= 0
 R35: C35 >= 0
 R36: C36 >= 0
 R37: C37 >= 0
 R38: C38 >= 0
 R39: C39 >= 0
 R40: C40 >= 0
 R41: C41 >= 0
 R42: C42 >= 0
 R43: C43 >= 0
 R44: C44 >= 0
 R45: C45 >= 0
 R46: C46 >= 0
 R47: C47 >= 0
 R48: C48 >= 0
 R49: C49 >= 0
 R50: C50 >= 0
 R51: C51 >= 0
 R52: C52 >= 0
 R53: C53 >= 0
 R54: C54 >= 0
 R55: C55 >= 0
 R56: C56 >= 0
 R57: C57 >= 0
 R58: C58 >= 0
 R59: C59 >= 0
 R60: C60 >= 0
 R61: C61 >= 0
 R62: C62 >= 0
 R63: C63 >= 0
 R64: C64 >= 0
 R65: C65 >= 0
 R66: C66 >= 0
 R67: C67 >= 0
 R68: C68 >= 0
 R69: C69 >= 0
 R70: C70 >= 0
 R71: C71 >= 0
 R72: C72 >= 0
 R73: C73 >= 0
 R74: C74 >= 0
 R75: C75 >= 0
 R76: C76 >= 0
 R77: C77 >= 0
 R78: C78 >= 0
 R79: C79 >= 0
 R80: C0 <= 120
 R81: C1 <= 120
 R82: C2 <= 120
 R83: C3 <= 120
 R84: C4 <= 120
 R85: C5 <= 120
 R86: C6 <= 120
 R87: C7 <= 120
 R88: C8 <= 120
 R89: C9 <= 120
 R90: C10 <= 120
 R91: C11 <= 120
 R92: C12 <= 120
 R93: C13 <= 120
 R94: C14 <= 120
 R95: C15 <= 120
 R96: C16 <= 120
 R97: C17 <= 120
 R98: C18 <= 120
 R99: C19 <= 120
 R100: C20 <= 120
 R101: C21 <= 120
 R102: C22 <= 120
 R103: C23 <= 120
 R104: C24 <= 120
 R105: C25 <= 120
 R106: C26 <= 120
 R107: C27 <= 120
 R108: C28 <= 120
 R109: C29 <= 120
 R110: C30 <= 120
 R111: C31 <= 120
 R112: C32 <= 120
 R113: C33 <= 120
 R114: C34 <= 120
 R115: C35 <= 120
 R116: C36 <= 120
 R117: C37 <= 120
 R118: C38 <= 120
 R119: C39 <= 120
 R120: C40 <= 120
 R121: C41 <= 120
 R122: C42 <= 120
 R123: C43 <= 120
 R124: C44 <= 120
 R125: C45 <= 120
 R126: C46 <= 120
 R127: C47 <= 120
 R128: C48 <= 120
 R129: C49 <= 120
 R130: C50 <= 120
 R131: C51 <= 120
 R132: C52 <= 120
 R133: C53 <= 120
 R134: C54 <= 120
 R135: C55 <= 120
 R136: C56 <= 120
 R137: C57 <= 120
 R138: C58 <= 120
 R139: C59 <= 120
 R140: C60 <= 120
 R141: C61 <= 120
 R142: C62 <= 120
 R143: C63 <= 120
 R144: C64 <= 120
 R145: C65 <= 120
 R146: C66 <= 120
 R147: C67 <= 120
 R148: C68 <= 120
 R149: C69 <= 120
 R150: C70 <= 120
 R151: C71 <= 120
 R152: C72 <= 120
 R153: C73 <= 120
 R154: C74 <= 120
 R155: C75 <= 120
 R156: C76 <= 120
 R157: C77 <= 120
 R158: C78 <= 120
 R159: C79 <= 120
 R160: C0 <= 2280
 R161: C1 <= 2280
 R162: C2 <= 2280
 R163: C3 <= 2280
 R164: C4 <= 2280
 R165: C5 <= 2280
 R166: C6 <= 2280
 R167: C7 <= 2280
 R168: C8 <= 2280
 R169: C9 <= 2280
 R170: C10 <= 2280
 R171: C11 <= 2280
 R172: C12 <= 2280
 R173: C13 <= 2280
 R174: C14 <= 2280
 R175: C15 <= 2280
 R176: C16 <= 2280
 R177: C17 <= 2280
 R178: C18 <= 2280
 R179: C19 <= 2280
 R180: C20 <= 2280
 R181: C21 <= 2280
 R182: C22 <= 2280
 R183: C23 <= 2280
 R184: C24 <= 2280
 R185: C25 <= 2280
 R186: C26 <= 2280
 R187: C27 <= 2280
 R188: C28 <= 2280
 R189: C29 <= 2280
 R190: C30 <= 2280
 R191: C31 <= 2280
 R192: C32 <= 2280
 R193: C33 <= 2280
 R194: C34 <= 2280
 R195: C35 <= 2280
 R196: C36 <= 2280
 R197: C37 <= 2280
 R198: C38 <= 2280
 R199: C39 <= 2280
 R200: C40 <= 2280
 R201: C41 <= 2280
 R202: C42 <= 2280
 R203: C43 <= 2280
 R204: C44 <= 2280
 R205: C45 <= 2280
 R206: C46 <= 2280
 R207: C47 <= 2280
 R208: C48 <= 2280
 R209: C49 <= 2280
 R210: C50 <= 2280
 R211: C51 <= 2280
 R212: C52 <= 2280
 R213: C53 <= 2280
 R214: C54 <= 2280
 R215: C55 <= 2280
 R216: C56 <= 2280
 R217: C57 <= 2280
 R218: C58 <= 2280
 R219: C59 <= 2280
 R220: C60 <= 2280
 R221: C61 <= 2280
 R222: C62 <= 2280
 R223: C63 <= 2280
 R224: C64 <= 2280
 R225: C65 <= 2280
 R226: C66 <= 2280
 R227: C67 <= 2280
 R228: C68 <= 2280
 R229: C69 <= 2280
 R230: C70 <= 2280
 R231: C71 <= 2280
 R232: C72 <= 2280
 R233: C73 <= 2280
 R234: C74 <= 2280
 R235: C75 <= 2280
 R236: C76 <= 2280
 R237: C77 <= 2280
 R238: C78 <= 2280
 R239: C79 <= 2280
 R240: 0.1 C0 + 0.1 C1 + 0.1 C2 + 0.1 C3 + 0.1 C4 + 0.1 C5 + 0.1 C6
   + 0.1 C7 + 0.1 C8 + 0.1 C9 + 0.1 C10 + 0.1 C11 + 0.1 C12 + 0.1 C13
   + 0.1 C14 + 0.1 C15 + 0.1 C16 + 0.1 C17 + 0.1 C18 + 0.1 C19 + 0.1 C20
   + 0.1 C21 + 0.1 C22 + 0.1 C23 + 0.1 C24 + 0.1 C25 + 0.1 C26 + 0.1 C27
   + 0.1 C28 + 0.1 C29 + 0.1 C30 + 0.1 C31 + 0.1 C32 + 0.1 C33 + 0.1 C34
   + 0.1 C35 + 0.1 C36 + 0.1 C37 + 0.1 C38 + 0.1 C39 + 0.1 C40 + 0.1 C41
   + 0.1 C42 + 0.1 C43 + 0.1 C44 + 0.1 C45 + 0.1 C46 + 0.1 C47 + 0.1 C48
   + 0.1 C49 + 0.1 C50 + 0.1 C51 + 0.1 C52 + 0.1 C53 + 0.1 C54 + 0.1 C55
   + 0.1 C56 + 0.1 C57 + 0.1 C58 + 0.1 C59 + 0.1 C60 + 0.1 C61 + 0.1 C62
   + 0.1 C63 + 0.1 C64 + 0.1 C65 + 0.1 C66 + 0.1 C67 + 0.1 C68 + 0.1 C69
   + 0.1 C70 + 0.1 C71 + 0.1 C72 + 0.1 C73 + 0.1 C74 + 0.1 C75 + 0.1 C76
   + 0.1 C77 + 0.1 C78 + 0.1 C79 >= 68.4
 R241: 0.1 C0 + 0.1 C1 + 0.1 C2 + 0.1 C3 + 0.1 C4 + 0.1 C5 + 0.1 C6
   + 0.1 C7 + 0.1 C8 + 0.1 C9 + 0.1 C10 + 0.1 C11 + 0.1 C12 + 0.1 C13
   + 0.1 C14 + 0.1 C15 + 0.1 C16 + 0.1 C17 + 0.1 C18 + 0.1 C19 + 0.1 C20
   + 0.1 C21 + 0.1 C22 + 0.1 C23 + 0.1 C24 + 0.1 C25 + 0.1 C26 + 0.1 C27
   + 0.1 C28 + 0.1 C29 + 0.1 C30 + 0.1 C31 + 0.1 C32 + 0.1 C33 + 0.1 C34
   + 0.1 C35 + 0.1 C36 + 0.1 C37 + 0.1 C38 + 0.1 C39 + 0.1 C40 + 0.1 C41
   + 0.1 C42 + 0.1 C43 + 0.1 C44 + 0.1 C45 + 0.1 C46 + 0.1 C47 + 0.1 C48
   + 0.1 C49 + 0.1 C50 + 0.1 C51 + 0.1 C52 + 0.1 C53 + 0.1 C54 + 0.1 C55
   + 0.1 C56 + 0.1 C57 + 0.1 C58 + 0.1 C59 + 0.1 C60 + 0.1 C61 + 0.1 C62
   + 0.1 C63 + 0.1 C64 + 0.1 C65 + 0.1 C66 + 0.1 C67 + 0.1 C68 + 0.1 C69
   + 0.1 C70 + 0.1 C71 + 0.1 C72 + 0.1 C73 + 0.1 C74 + 0.1 C75 + 0.1 C76
   + 0.1 C77 + 0.1 C78 + 0.1 C79 <= 74.1
 R242: - 1.7543859649122808e-04 C0 + C80 = 0.1
 R243: - 1.7543859649122808e-04 C1 - C80 + C81 = 0
 R244: - 1.7543859649122808e-04 C2 - C81 + C82 = 0
 R245: - 1.7543859649122808e-04 C3 - C82 + C83 = 0
 R246: - 1.7543859649122808e-04 C4 - C83 + C84 = 0
 R247: - 1.7543859649122808e-04 C5 - C84 + C85 = 0
 R248: - 1.7543859649122808e-04 C6 - C85 + C86 = 0
 R249: - 1.7543859649122808e-04 C7 - C86 + C87 = 0
 R250: - 1.7543859649122808e-04 C8 - C87 + C88 = 0
 R251: - 1.7543859649122808e-04 C9 - C88 + C89 = 0
 R252: - 1.7543859649122808e-04 C10 - C89 + C90 = 0
 R253: - 1.7543859649122808e-04 C11 - C90 + C91 = 0
 R254: - 1.7543859649122808e-04 C12 - C91 + C92 = 0
 R255: - 1.7543859649122808e-04 C13 - C92 + C93 = 0
 R256: - 1.7543859649122808e-04 C14 - C93 + C94 = 0
 R257: - 1.7543859649122808e-04 C15 - C94 + C95 = 0
 R258: - 1.7543859649122808e-04 C16 - C95 + C96 = 0
 R259: - 1.7543859649122808e-04 C17 - C96 + C97 = 0
 R260: - 1.7543859649122808e-04 C18 - C97 + C98 = 0
 R261: - 1.7543859649122808e-04 C19 - C98 + C99 = 0
 R262: - 1.7543859649122808e-04 C20 - C99 + C100 = 0
 R263: - 1.7543859649122808e-04 C21 - C100 + C101 = 0
 R264: - 1.7543859649122808e-04 C22 - C101 + C102 = 0
 R265: - 1.7543859649122808e-04 C23 - C102 + C103 = 0
 R266: - 1.7543859649122808e-04 C24 - C103 + C104 = 0
 R267: - 1.7543859649122808e-04 C25 - C104 + C105 = 0
 R268: - 1.7543859649122808e-04 C26 - C105 + C106 = 0
 R269: - 1.7543859649122808e-04 C27 - C106 + C107 = 0
 R270: - 1.7543859649122808e-04 C28 - C107 + C108 = 0
 R271: - 1.7543859649122808e-04 C29 - C108 + C109 = 0
 R272: - 1.7543859649122808e-04 C30 - C109 + C110 = 0
 R273: - 1.7543859649122808e-04 C31 - C110 + C111 = 0
 R274: - 1.7543859649122808e-04 C32 - C111 + C112 = 0
 R275: - 1.7543859649122808e-04 C33 - C112 + C113 = 0
 R276: - 1.7543859649122808e-04 C34 - C113 + C114 = 0
 R277: - 1.7543859649122808e-04 C35 - C114 + C115 = 0
 R278: - 1.7543859649122808e-04 C36 - C115 + C116 = 0
 R279: - 1.7543859649122808e-04 C37 - C116 + C117 = 0
 R280: - 1.7543859649122808e-04 C38 - C117 + C118 = 0
 R281: - 1.7543859649122808e-04 C39 - C118 + C119 = 0
 R282: - 1.7543859649122808e-04 C40 - C119 + C120 = 0
 R283: - 1.7543859649122808e-04 C41 - C120 + C121 = 0
 R284: - 1.7543859649122808e-04 C42 - C121 + C122 = 0
 R285: - 1.7543859649122808e-04 C43 - C122 + C123 = 0
 R286: - 1.7543859649122808e-04 C44 - C123 + C124 = 0
 R287: - 1.7543859649122808e-04 C45 - C124 + C125 = 0
 R288: - 1.7543859649122808e-04 C46 - C125 + C126 = 0
 R289: - 1.7543859649122808e-04 C47 - C126 + C127 = 0
 R290: - 1.7543859649122808e-04 C48 - C127 + C128 = 0
 R291: - 1.7543859649122808e-04 C49 - C128 + C129 = 0
 R292: - 1.7543859649122808e-04 C50 - C129 + C130 = 0
 R293: - 1.7543859649122808e-04 C51 - C130 + C131 = 0
 R294: - 1.7543859649122808e-04 C52 - C131 + C132 = 0
 R295: - 1.7543859649122808e-04 C53 - C132 + C133 = 0
 R296: - 1.7543859649122808e-04 C54 - C133 + C134 = 0
 R297: - 1.7543859649122808e-04 C55 - C134 + C135 = 0
 R298: - 1.7543859649122808e-04 C56 - C135 + C136 = 0
 R299: - 1.7543859649122808e-04 C57 - C136 + C137 = 0
 R300: - 1.7543859649122808e-04 C58 - C137 + C138 = 0
 R301: - 1.7543859649122808e-04 C59 - C138 + C139 = 0
 R302: - 1.7543859649122808e-04 C60 - C139 + C140 = 0
 R303: - 1.7543859649122808e-04 C61 - C140 + C141 = 0
 R304: - 1.7543859649122808e-04 C62 - C141 + C142 = 0
 R305: - 1.7543859649122808e-04 C63 - C142 + C143 = 0
 R306: - 1.7543859649122808e-04 C64 - C143 + C144 = 0
 R307: - 1.7543859649122808e-04 C65 - C144 + C145 = 0
 R308: - 1.7543859649122808e-04 C66 - C145 + C146 = 0
 R309: - 1.7543859649122808e-04 C67 - C146 + C147 = 0
 R310: - 1.7543859649122808e-04 C68 - C147 + C148 = 0
 R311: - 1.7543859649122808e-04 C69 - C148 + C149 = 0
 R312: - 1.7543859649122808e-04 C70 - C149 + C150 = 0
 R313: - 1.7543859649122808e-04 C71 - C150 + C151 = 0
 R314: - 1.7543859649122808e-04 C72 - C151 + C152 = 0
 R315: - 1.7543859649122808e-04 C73 - C152 + C153 = 0
 R316: - 1.7543859649122808e-04 C74 - C153 + C154 = 0
 R317: - 1.7543859649122808e-04 C75 - C154 + C155 = 0
 R318: - 1.7543859649122808e-04 C76 - C155 + C156 = 0
 R319: - 1.7543859649122808e-04 C77 - C156 + C157 = 0
 R320: - 1.7543859649122808e-04 C78 - C157 + C158 = 0
 R321: - 1.7543859649122808e-04 C79 - C158 + C159 = 0
 R322: - 8.77193e-05 C0 + C160 = 0.1
 R323: - 8.77193e-05 C1 - C80 + C161 = 0
 R324: - 8.77193e-05 C2 - C81 + C162 = 0
 R325: - 8.77193e-05 C3 - C82 + C163 = 0
 R326: - 8.77193e-05 C4 - C83 + C164 = 0
 R327: - 8.77193e-05 C5 - C84 + C165 = 0
 R328: - 8.77193e-05 C6 - C85 + C166 = 0
 R329: - 8.77193e-05 C7 - C86 + C167 = 0
 R330: - 8.77193e-05 C8 - C87 + C168 = 0
 R331: - 8.77193e-05 C9 - C88 + C169 = 0
 R332: - 8.77193e-05 C10 - C89 + C170 = 0
 R333: - 8.77193e-05 C11 - C90 + C171 = 0
 R334: - 8.77193e-05 C12 - C91 + C172 = 0
 R335: - 8.77193e-05 C13 - C92 + C173 = 0
 R336: - 8.77193e-05 C14 - C93 + C174 = 0
 R337: - 8.77193e-05 C15 - C94 + C175 = 0
 R338: - 8.77193e-05 C16 - C95 + C176 = 0
 R339: - 8.77193e-05 C17 - C96 + C177 = 0
 R340: - 8.77193e-05 C18 - C97 + C178 = 0
 R341: - 8.77193e-05 C19 - C98 + C179 = 0
 R342: - 8.77193e-05 C20 - C99 + C180 = 0
 R343: - 8.77193e-05 C21 - C100 + C181 = 0
 R344: - 8.77193e-05 C22 - C101 + C182 = 0
 R345: - 8.77193e-05 C23 - C102 + C183 = 0
 R346: - 8.77193e-05 C24 - C103 + C184 = 0
 R347: - 8.77193e-05 C25 - C104 + C185 = 0
 R348: - 8.77193e-05 C26 - C105 + C186 = 0
 R349: - 8.77193e-05 C27 - C106 + C187 = 0
 R350: - 8.77193e-05 C28 - C107 + C188 = 0
 R351: - 8.77193e-05 C29 - C108 + C189 = 0
 R352: - 8.77193e-05 C30 - C109 + C190 = 0
 R353: - 8.77193e-05 C31 - C110 + C191 = 0
 R354: - 8.77193e-05 C32 - C111 + C192 = 0
 R355: - 8.77193e-05 C33 - C112 + C193 = 0
 R356: - 8.77193e-05 C34 - C113 + C194 = 0
 R357: - 8.77193e-05 C35 - C114 + C195 = 0
 R358: - 8.77193e-05 C36 - C115 + C196 = 0
 R359: - 8.77193e-05 C37 - C116 + C197 = 0
 R360: - 8.77193e-05 C38 - C117 + C198 = 0
 R361: - 8.77193e-05 C39 - C118 + C199 = 0
 R362: - 8.77193e-05 C40 - C119 + C200 = 0
 R363: - 8.77193e-05 C41 - C120 + C201 = 0
 R364: - 8.77193e-05 C42 - C121 + C202 = 0
 R365: - 8.77193e-05 C43 - C122 + C203 = 0
 R366: - 8.77193e-05 C44 - C123 + C204 = 0
 R367: - 8.77193e-05 C45 - C124 + C205 = 0
 R368: - 8.77193e-05 C46 - C125 + C206 = 0
 R369: - 8.77193e-05 C47 - C126 + C207 = 0
 R370: - 8.77193e-05 C48 - C127 + C208 = 0
 R371: - 8.77193e-05 C49 - C128 + C209 = 0
 R372: - 8.77193e-05 C50 - C129 + C210 = 0
 R373: - 8.77193e-05 C51 - C130 + C211 = 0
 R374: - 8.77193e-05 C52 - C131 + C212 = 0
 R375: - 8.77193e-05 C53 - C132 + C213 = 0
 R376: - 8.77193e-05 C54 - C133 + C214 = 0
 R377: - 8.77193e-05 C55 - C134 + C215 = 0
 R378: - 8.77193e-05 C56 - C135 + C216 = 0
 R379: - 8.77193e-05 C57 - C136 + C217 = 0
 R380: - 8.77193e-05 C58 - C137 + C218 = 0
 R381: - 8.77193e-05 C59 - C138 + C219 = 0
 R382: - 8.77193e-05 C60 - C139 + C220 = 0
 R383: - 8.77193e-05 C61 - C140 + C221 = 0
 R384: - 8.77193e-05 C62 - C141 + C222 = 0
 R385: - 8.77193e-05 C63 - C142 + C223 = 0
 R386: - 8.77193e-05 C64 - C143 + C224 = 0
 R387: - 8.77193e-05 C65 - C144 + C225 = 0
 R388: - 8.77193e-05 C66 - C145 + C226 = 0
 R389: - 8.77193e-05 C67 - C146 + C227 = 0
 R390: - 8.77193e-05 C68 - C147 + C228 = 0
 R391: - 8.77193e-05 C69 - C148 + C229 = 0
 R392: - 8.77193e-05 C70 - C149 + C230 = 0
 R393: - 8.77193e-05 C71 - C150 + C231 = 0
 R394: - 8.77193e-05 C72 - C151 + C232 = 0
 R395: - 8.77193e-05 C73 - C152 + C233 = 0
 R396: - 8.77193e-05 C74 - C153 + C234 = 0
 R397: - 8.77193e-05 C75 - C154 + C235 = 0
 R398: - 8.77193e-05 C76 - C155 + C236 = 0
 R399: - 8.77193e-05 C77 - C156 + C237 = 0
 R400: - 8.77193e-05 C78 - C157 + C238 = 0
 R401: - 8.77193e-05 C79 - C158 + C239 = 0
 qc0: - 5.61836e-07 C0 - 0.000161191 C160 + C240 + [ 5.10909e-10 C0 ^2
   - 4.34273e-07 C0 * C160 ] = 3.75893e-05
 qc1: - 5.61836e-07 C1 - 0.000161191 C161 + C241 + [ 5.10909e-10 C1 ^2
   - 4.34273e-07 C1 * C161 ] = 3.75893e-05
 qc2: - 5.61836e-07 C2 - 0.000161191 C162 + C242 + [ 5.10909e-10 C2 ^2
   - 4.34273e-07 C2 * C162 ] = 3.75893e-05
 qc3: - 5.61836e-07 C3 - 0.000161191 C163 + C243 + [ 5.10909e-10 C3 ^2
   - 4.34273e-07 C3 * C163 ] = 3.75893e-05
 qc4: - 5.61836e-07 C4 - 0.000161191 C164 + C244 + [ 5.10909e-10 C4 ^2
   - 4.34273e-07 C4 * C164 ] = 3.75893e-05
 qc5: - 5.61836e-07 C5 - 0.000161191 C165 + C245 + [ 5.10909e-10 C5 ^2
   - 4.34273e-07 C5 * C165 ] = 3.75893e-05
 qc6: - 5.61836e-07 C6 - 0.000161191 C166 + C246 + [ 5.10909e-10 C6 ^2
   - 4.34273e-07 C6 * C166 ] = 3.75893e-05
 qc7: - 5.61836e-07 C7 - 0.000161191 C167 + C247 + [ 5.10909e-10 C7 ^2
   - 4.34273e-07 C7 * C167 ] = 3.75893e-05
 qc8: - 5.61836e-07 C8 - 0.000161191 C168 + C248 + [ 5.10909e-10 C8 ^2
   - 4.34273e-07 C8 * C168 ] = 3.75893e-05
 qc9: - 5.61836e-07 C9 - 0.000161191 C169 + C249 + [ 5.10909e-10 C9 ^2
   - 4.34273e-07 C9 * C169 ] = 3.75893e-05
 qc10: - 5.61836e-07 C10 - 0.000161191 C170 + C250 + [ 5.10909e-10 C10 ^2
   - 4.34273e-07 C10 * C170 ] = 3.75893e-05
 qc11: - 5.61836e-07 C11 - 0.000161191 C171 + C251 + [ 5.10909e-10 C11 ^2
   - 4.34273e-07 C11 * C171 ] = 3.75893e-05
 qc12: - 5.61836e-07 C12 - 0.000161191 C172 + C252 + [ 5.10909e-10 C12 ^2
   - 4.34273e-07 C12 * C172 ] = 3.75893e-05
 qc13: - 5.61836e-07 C13 - 0.000161191 C173 + C253 + [ 5.10909e-10 C13 ^2
   - 4.34273e-07 C13 * C173 ] = 3.75893e-05
 qc14: - 5.61836e-07 C14 - 0.000161191 C174 + C254 + [ 5.10909e-10 C14 ^2
   - 4.34273e-07 C14 * C174 ] = 3.75893e-05
 qc15: - 5.61836e-07 C15 - 0.000161191 C175 + C255 + [ 5.10909e-10 C15 ^2
   - 4.34273e-07 C15 * C175 ] = 3.75893e-05
 qc16: - 5.61836e-07 C16 - 0.000161191 C176 + C256 + [ 5.10909e-10 C16 ^2
   - 4.34273e-07 C16 * C176 ] = 3.75893e-05
 qc17: - 5.61836e-07 C17 - 0.000161191 C177 + C257 + [ 5.10909e-10 C17 ^2
   - 4.34273e-07 C17 * C177 ] = 3.75893e-05
 qc18: - 5.61836e-07 C18 - 0.000161191 C178 + C258 + [ 5.10909e-10 C18 ^2
   - 4.34273e-07 C18 * C178 ] = 3.75893e-05
 qc19: - 5.61836e-07 C19 - 0.000161191 C179 + C259 + [ 5.10909e-10 C19 ^2
   - 4.34273e-07 C19 * C179 ] = 3.75893e-05
 qc20: - 5.61836e-07 C20 - 0.000161191 C180 + C260 + [ 5.10909e-10 C20 ^2
   - 4.34273e-07 C20 * C180 ] = 3.75893e-05
 qc21: - 5.61836e-07 C21 - 0.000161191 C181 + C261 + [ 5.10909e-10 C21 ^2
   - 4.34273e-07 C21 * C181 ] = 3.75893e-05
 qc22: - 5.61836e-07 C22 - 0.000161191 C182 + C262 + [ 5.10909e-10 C22 ^2
   - 4.34273e-07 C22 * C182 ] = 3.75893e-05
 qc23: - 5.61836e-07 C23 - 0.000161191 C183 + C263 + [ 5.10909e-10 C23 ^2
   - 4.34273e-07 C23 * C183 ] = 3.75893e-05
 qc24: - 5.61836e-07 C24 - 0.000161191 C184 + C264 + [ 5.10909e-10 C24 ^2
   - 4.34273e-07 C24 * C184 ] = 3.75893e-05
 qc25: - 5.61836e-07 C25 - 0.000161191 C185 + C265 + [ 5.10909e-10 C25 ^2
   - 4.34273e-07 C25 * C185 ] = 3.75893e-05
 qc26: - 5.61836e-07 C26 - 0.000161191 C186 + C266 + [ 5.10909e-10 C26 ^2
   - 4.34273e-07 C26 * C186 ] = 3.75893e-05
 qc27: - 5.61836e-07 C27 - 0.000161191 C187 + C267 + [ 5.10909e-10 C27 ^2
   - 4.34273e-07 C27 * C187 ] = 3.75893e-05
 qc28: - 5.61836e-07 C28 - 0.000161191 C188 + C268 + [ 5.10909e-10 C28 ^2
   - 4.34273e-07 C28 * C188 ] = 3.75893e-05
 qc29: - 5.61836e-07 C29 - 0.000161191 C189 + C269 + [ 5.10909e-10 C29 ^2
   - 4.34273e-07 C29 * C189 ] = 3.75893e-05
 qc30: - 5.61836e-07 C30 - 0.000161191 C190 + C270 + [ 5.10909e-10 C30 ^2
   - 4.34273e-07 C30 * C190 ] = 3.75893e-05
 qc31: - 5.61836e-07 C31 - 0.000161191 C191 + C271 + [ 5.10909e-10 C31 ^2
   - 4.34273e-07 C31 * C191 ] = 3.75893e-05
 qc32: - 5.61836e-07 C32 - 0.000161191 C192 + C272 + [ 5.10909e-10 C32 ^2
   - 4.34273e-07 C32 * C192 ] = 3.75893e-05
 qc33: - 5.61836e-07 C33 - 0.000161191 C193 + C273 + [ 5.10909e-10 C33 ^2
   - 4.34273e-07 C33 * C193 ] = 3.75893e-05
 qc34: - 5.61836e-07 C34 - 0.000161191 C194 + C274 + [ 5.10909e-10 C34 ^2
   - 4.34273e-07 C34 * C194 ] = 3.75893e-05
 qc35: - 5.61836e-07 C35 - 0.000161191 C195 + C275 + [ 5.10909e-10 C35 ^2
   - 4.34273e-07 C35 * C195 ] = 3.75893e-05
 qc36: - 5.61836e-07 C36 - 0.000161191 C196 + C276 + [ 5.10909e-10 C36 ^2
   - 4.34273e-07 C36 * C196 ] = 3.75893e-05
 qc37: - 5.61836e-07 C37 - 0.000161191 C197 + C277 + [ 5.10909e-10 C37 ^2
   - 4.34273e-07 C37 * C197 ] = 3.75893e-05
 qc38: - 5.61836e-07 C38 - 0.000161191 C198 + C278 + [ 5.10909e-10 C38 ^2
   - 4.34273e-07 C38 * C198 ] = 3.75893e-05
 qc39: - 5.61836e-07 C39 - 0.000161191 C199 + C279 + [ 5.10909e-10 C39 ^2
   - 4.34273e-07 C39 * C199 ] = 3.75893e-05
 qc40: - 5.61836e-07 C40 - 0.000161191 C200 + C280 + [ 5.10909e-10 C40 ^2
   - 4.34273e-07 C40 * C200 ] = 3.75893e-05
 qc41: - 5.61836e-07 C41 - 0.000161191 C201 + C281 + [ 5.10909e-10 C41 ^2
   - 4.34273e-07 C41 * C201 ] = 3.75893e-05
 qc42: - 5.61836e-07 C42 - 0.000161191 C202 + C282 + [ 5.10909e-10 C42 ^2
   - 4.34273e-07 C42 * C202 ] = 3.75893e-05
 qc43: - 5.61836e-07 C43 - 0.000161191 C203 + C283 + [ 5.10909e-10 C43 ^2
   - 4.34273e-07 C43 * C203 ] = 3.75893e-05
 qc44: - 5.61836e-07 C44 - 0.000161191 C204 + C284 + [ 5.10909e-10 C44 ^2
   - 4.34273e-07 C44 * C204 ] = 3.75893e-05
 qc45: - 5.61836e-07 C45 - 0.000161191 C205 + C285 + [ 5.10909e-10 C45 ^2
   - 4.34273e-07 C45 * C205 ] = 3.75893e-05
 qc46: - 5.61836e-07 C46 - 0.000161191 C206 + C286 + [ 5.10909e-10 C46 ^2
   - 4.34273e-07 C46 * C206 ] = 3.75893e-05
 qc47: - 5.61836e-07 C47 - 0.000161191 C207 + C287 + [ 5.10909e-10 C47 ^2
   - 4.34273e-07 C47 * C207 ] = 3.75893e-05
 qc48: - 5.61836e-07 C48 - 0.000161191 C208 + C288 + [ 5.10909e-10 C48 ^2
   - 4.34273e-07 C48 * C208 ] = 3.75893e-05
 qc49: - 5.61836e-07 C49 - 0.000161191 C209 + C289 + [ 5.10909e-10 C49 ^2
   - 4.34273e-07 C49 * C209 ] = 3.75893e-05
 qc50: - 5.61836e-07 C50 - 0.000161191 C210 + C290 + [ 5.10909e-10 C50 ^2
   - 4.34273e-07 C50 * C210 ] = 3.75893e-05
 qc51: - 5.61836e-07 C51 - 0.000161191 C211 + C291 + [ 5.10909e-10 C51 ^2
   - 4.34273e-07 C51 * C211 ] = 3.75893e-05
 qc52: - 5.61836e-07 C52 - 0.000161191 C212 + C292 + [ 5.10909e-10 C52 ^2
   - 4.34273e-07 C52 * C212 ] = 3.75893e-05
 qc53: - 5.61836e-07 C53 - 0.000161191 C213 + C293 + [ 5.10909e-10 C53 ^2
   - 4.34273e-07 C53 * C213 ] = 3.75893e-05
 qc54: - 5.61836e-07 C54 - 0.000161191 C214 + C294 + [ 5.10909e-10 C54 ^2
   - 4.34273e-07 C54 * C214 ] = 3.75893e-05
 qc55: - 5.61836e-07 C55 - 0.000161191 C215 + C295 + [ 5.10909e-10 C55 ^2
   - 4.34273e-07 C55 * C215 ] = 3.75893e-05
 qc56: - 5.61836e-07 C56 - 0.000161191 C216 + C296 + [ 5.10909e-10 C56 ^2
   - 4.34273e-07 C56 * C216 ] = 3.75893e-05
 qc57: - 5.61836e-07 C57 - 0.000161191 C217 + C297 + [ 5.10909e-10 C57 ^2
   - 4.34273e-07 C57 * C217 ] = 3.75893e-05
 qc58: - 5.61836e-07 C58 - 0.000161191 C218 + C298 + [ 5.10909e-10 C58 ^2
   - 4.34273e-07 C58 * C218 ] = 3.75893e-05
 qc59: - 5.61836e-07 C59 - 0.000161191 C219 + C299 + [ 5.10909e-10 C59 ^2
   - 4.34273e-07 C59 * C219 ] = 3.75893e-05
 qc60: - 5.61836e-07 C60 - 0.000161191 C220 + C300 + [ 5.10909e-10 C60 ^2
   - 4.34273e-07 C60 * C220 ] = 3.75893e-05
 qc61: - 5.61836e-07 C61 - 0.000161191 C221 + C301 + [ 5.10909e-10 C61 ^2
   - 4.34273e-07 C61 * C221 ] = 3.75893e-05
 qc62: - 5.61836e-07 C62 - 0.000161191 C222 + C302 + [ 5.10909e-10 C62 ^2
   - 4.34273e-07 C62 * C222 ] = 3.75893e-05
 qc63: - 5.61836e-07 C63 - 0.000161191 C223 + C303 + [ 5.10909e-10 C63 ^2
   - 4.34273e-07 C63 * C223 ] = 3.75893e-05
 qc64: - 5.61836e-07 C64 - 0.000161191 C224 + C304 + [ 5.10909e-10 C64 ^2
   - 4.34273e-07 C64 * C224 ] = 3.75893e-05
 qc65: - 5.61836e-07 C65 - 0.000161191 C225 + C305 + [ 5.10909e-10 C65 ^2
   - 4.34273e-07 C65 * C225 ] = 3.75893e-05
 qc66: - 5.61836e-07 C66 - 0.000161191 C226 + C306 + [ 5.10909e-10 C66 ^2
   - 4.34273e-07 C66 * C226 ] = 3.75893e-05
 qc67: - 5.61836e-07 C67 - 0.000161191 C227 + C307 + [ 5.10909e-10 C67 ^2
   - 4.34273e-07 C67 * C227 ] = 3.75893e-05
 qc68: - 5.61836e-07 C68 - 0.000161191 C228 + C308 + [ 5.10909e-10 C68 ^2
   - 4.34273e-07 C68 * C228 ] = 3.75893e-05
 qc69: - 5.61836e-07 C69 - 0.000161191 C229 + C309 + [ 5.10909e-10 C69 ^2
   - 4.34273e-07 C69 * C229 ] = 3.75893e-05
 qc70: - 5.61836e-07 C70 - 0.000161191 C230 + C310 + [ 5.10909e-10 C70 ^2
   - 4.34273e-07 C70 * C230 ] = 3.75893e-05
 qc71: - 5.61836e-07 C71 - 0.000161191 C231 + C311 + [ 5.10909e-10 C71 ^2
   - 4.34273e-07 C71 * C231 ] = 3.75893e-05
 qc72: - 5.61836e-07 C72 - 0.000161191 C232 + C312 + [ 5.10909e-10 C72 ^2
   - 4.34273e-07 C72 * C232 ] = 3.75893e-05
 qc73: - 5.61836e-07 C73 - 0.000161191 C233 + C313 + [ 5.10909e-10 C73 ^2
   - 4.34273e-07 C73 * C233 ] = 3.75893e-05
 qc74: - 5.61836e-07 C74 - 0.000161191 C234 + C314 + [ 5.10909e-10 C74 ^2
   - 4.34273e-07 C74 * C234 ] = 3.75893e-05
 qc75: - 5.61836e-07 C75 - 0.000161191 C235 + C315 + [ 5.10909e-10 C75 ^2
   - 4.34273e-07 C75 * C235 ] = 3.75893e-05
 qc76: - 5.61836e-07 C76 - 0.000161191 C236 + C316 + [ 5.10909e-10 C76 ^2
   - 4.34273e-07 C76 * C236 ] = 3.75893e-05
 qc77: - 5.61836e-07 C77 - 0.000161191 C237 + C317 + [ 5.10909e-10 C77 ^2
   - 4.34273e-07 C77 * C237 ] = 3.75893e-05
 qc78: - 5.61836e-07 C78 - 0.000161191 C238 + C318 + [ 5.10909e-10 C78 ^2
   - 4.34273e-07 C78 * C238 ] = 3.75893e-05
 qc79: - 5.61836e-07 C79 - 0.000161191 C239 + C319 + [ 5.10909e-10 C79 ^2
   - 4.34273e-07 C79 * C239 ] = 3.75893e-05
Bounds
 C0 <= 120
 C1 <= 120
 C2 <= 120
 C3 <= 120
 C4 <= 120
 C5 <= 120
 C6 <= 120
 C7 <= 120
 C8 <= 120
 C9 <= 120
 C10 <= 120
 C11 <= 120
 C12 <= 120
 C13 <= 120
 C14 <= 120
 C15 <= 120
 C16 <= 120
 C17 <= 120
 C18 <= 120
 C19 <= 120
 C20 <= 120
 C21 <= 120
 C22 <= 120
 C23 <= 120
 C24 <= 120
 C25 <= 120
 C26 <= 120
 C27 <= 120
 C28 <= 120
 C29 <= 120
 C30 <= 120
 C31 <= 120
 C32 <= 120
 C33 <= 120
 C34 <= 120
 C35 <= 120
 C36 <= 120
 C37 <= 120
 C38 <= 120
 C39 <= 120
 C40 <= 120
 C41 <= 120
 C42 <= 120
 C43 <= 120
 C44 <= 120
 C45 <= 120
 C46 <= 120
 C47 <= 120
 C48 <= 120
 C49 <= 120
 C50 <= 120
 C51 <= 120
 C52 <= 120
 C53 <= 120
 C54 <= 120
 C55 <= 120
 C56 <= 120
 C57 <= 120
 C58 <= 120
 C59 <= 120
 C60 <= 120
 C61 <= 120
 C62 <= 120
 C63 <= 120
 C64 <= 120
 C65 <= 120
 C66 <= 120
 C67 <= 120
 C68 <= 120
 C69 <= 120
 C70 <= 120
 C71 <= 120
 C72 <= 120
 C73 <= 120
 C74 <= 120
 C75 <= 120
 C76 <= 120
 C77 <= 120
 C78 <= 120
 C79 <= 120
 C80 <= 1
 C81 <= 1
 C82 <= 1
 C83 <= 1
 C84 <= 1
 C85 <= 1
 C86 <= 1
 C87 <= 1
 C88 <= 1
 C89 <= 1
 C90 <= 1
 C91 <= 1
 C92 <= 1
 C93 <= 1
 C94 <= 1
 C95 <= 1
 C96 <= 1
 C97 <= 1
 C98 <= 1
 C99 <= 1
 C100 <= 1
 C101 <= 1
 C102 <= 1
 C103 <= 1
 C104 <= 1
 C105 <= 1
 C106 <= 1
 C107 <= 1
 C108 <= 1
 C109 <= 1
 C110 <= 1
 C111 <= 1
 C112 <= 1
 C113 <= 1
 C114 <= 1
 C115 <= 1
 C116 <= 1
 C117 <= 1
 C118 <= 1
 C119 <= 1
 C120 <= 1
 C121 <= 1
 C122 <= 1
 C123 <= 1
 C124 <= 1
 C125 <= 1
 C126 <= 1
 C127 <= 1
 C128 <= 1
 C129 <= 1
 C130 <= 1
 C131 <= 1
 C132 <= 1
 C133 <= 1
 C134 <= 1
 C135 <= 1
 C136 <= 1
 C137 <= 1
 C138 <= 1
 C139 <= 1
 C140 <= 1
 C141 <= 1
 C142 <= 1
 C143 <= 1
 C144 <= 1
 C145 <= 1
 C146 <= 1
 C147 <= 1
 C148 <= 1
 C149 <= 1
 C150 <= 1
 C151 <= 1
 C152 <= 1
 C153 <= 1
 C154 <= 1
 C155 <= 1
 C156 <= 1
 C157 <= 1
 C158 <= 1
 C159 <= 1
 C160 <= 1
 C161 <= 1
 C162 <= 1
 C163 <= 1
 C164 <= 1
 C165 <= 1
 C166 <= 1
 C167 <= 1
 C168 <= 1
 C169 <= 1
 C170 <= 1
 C171 <= 1
 C172 <= 1
 C173 <= 1
 C174 <= 1
 C175 <= 1
 C176 <= 1
 C177 <= 1
 C178 <= 1
 C179 <= 1
 C180 <= 1
 C181 <= 1
 C182 <= 1
 C183 <= 1
 C184 <= 1
 C185 <= 1
 C186 <= 1
 C187 <= 1
 C188 <= 1
 C189 <= 1
 C190 <= 1
 C191 <= 1
 C192 <= 1
 C193 <= 1
 C194 <= 1
 C195 <= 1
 C196 <= 1
 C197 <= 1
 C198 <= 1
 C199 <= 1
 C200 <= 1
 C201 <= 1
 C202 <= 1
 C203 <= 1
 C204 <= 1
 C205 <= 1
 C206 <= 1
 C207 <= 1
 C208 <= 1
 C209 <= 1
 C210 <= 1
 C211 <= 1
 C212 <= 1
 C213 <= 1
 C214 <= 1
 C215 <= 1
 C216 <= 1
 C217 <= 1
 C218 <= 1
 C219 <= 1
 C220 <= 1
 C221 <= 1
 C222 <= 1
 C223 <= 1
 C224 <= 1
 C225 <= 1
 C226 <= 1
 C227 <= 1
 C228 <= 1
 C229 <= 1
 C230 <= 1
 C231 <= 1
 C232 <= 1
 C233 <= 1
 C234 <= 1
 C235 <= 1
 C236 <= 1
 C237 <= 1
 C238 <= 1
 C239 <= 1
 C240 <= 0.05
 C241 <= 0.05
 C242 <= 0.05
 C243 <= 0.05
 C244 <= 0.05
 C245 <= 0.05
 C246 <= 0.05
 C247 <= 0.05
 C248 <= 0.05
 C249 <= 0.05
 C250 <= 0.05
 C251 <= 0.05
 C252 <= 0.05
 C253 <= 0.05
 C254 <= 0.05
 C255 <= 0.05
 C256 <= 0.05
 C257 <= 0.05
 C258 <= 0.05
 C259 <= 0.05
 C260 <= 0.05
 C261 <= 0.05
 C262 <= 0.05
 C263 <= 0.05
 C264 <= 0.05
 C265 <= 0.05
 C266 <= 0.05
 C267 <= 0.05
 C268 <= 0.05
 C269 <= 0.05
 C270 <= 0.05
 C271 <= 0.05
 C272 <= 0.05
 C273 <= 0.05
 C274 <= 0.05
 C275 <= 0.05
 C276 <= 0.05
 C277 <= 0.05
 C278 <= 0.05
 C279 <= 0.05
 C280 <= 0.05
 C281 <= 0.05
 C282 <= 0.05
 C283 <= 0.05
 C284 <= 0.05
 C285 <= 0.05
 C286 <= 0.05
 C287 <= 0.05
 C288 <= 0.05
 C289 <= 0.05
 C290 <= 0.05
 C291 <= 0.05
 C292 <= 0.05
 C293 <= 0.05
 C294 <= 0.05
 C295 <= 0.05
 C296 <= 0.05
 C297 <= 0.05
 C298 <= 0.05
 C299 <= 0.05
 C300 <= 0.05
 C301 <= 0.05
 C302 <= 0.05
 C303 <= 0.05
 C304 <= 0.05
 C305 <= 0.05
 C306 <= 0.05
 C307 <= 0.05
 C308 <= 0.05
 C309 <= 0.05
 C310 <= 0.05
 C311 <= 0.05
 C312 <= 0.05
 C313 <= 0.05
 C314 <= 0.05
 C315 <= 0.05
 C316 <= 0.05
 C317 <= 0.05
 C318 <= 0.05
 C319 <= 0.05
End
